decision_x1=[0,2];
decision_x2=[0,2];
decision_x3=[0,2];
decision_x4=[0,2];
decision_x5=[0,2];
decision_x6=[0,2];
decision_x7=[0,2];
decision_x8=[0,2];
decision_x9=[0,2];
decision_x10=[0,2];
decision_x11=[0,2];
decision_x12=[0,2];
decision_x13=[0,2];
decision_x14=[0,2];
decision_x15=[0,2];
random_y1=[0,2];
random_y2=[0,2];
random_y3=[0,2];
constraint_x2_x1=[
0,0,1.2|
0,1,6.8|
0,2,1.3|
1,0,9|
1,1,4.8|
1,2,2.8|
2,0,8.6|
2,1,3.7|
2,2,0.028|
];
constraint_x3_x1=[
0,0,6.8|
0,1,7.8|
0,2,5.4|
1,0,4.6|
1,1,4.8|
1,2,0.21|
2,0,0.8|
2,1,7.4|
2,2,7.4|
];
constraint_x4_x2=[
0,0,1.1|
0,1,8.2|
0,2,0.034|
1,0,9.8|
1,1,7.4|
1,2,7.2|
2,0,7.4|
2,1,7.4|
2,2,0.26|
];
constraint_x4_x3=[
0,0,5.7|
0,1,1.2|
0,2,7.3|
1,0,5.7|
1,1,6.6|
1,2,6.2|
2,0,3.7|
2,1,7.9|
2,2,6|
];
constraint_x5_x1=[
0,0,6.6|
0,1,8.6|
0,2,9.7|
1,0,5.5|
1,1,5.7|
1,2,1.4|
2,0,4.3|
2,1,6.6|
2,2,4.4|
];
constraint_x5_x4=[
0,0,6|
0,1,7.5|
0,2,1.9|
1,0,2.4|
1,1,2.9|
1,2,8.4|
2,0,7.9|
2,1,1.4|
2,2,6.3|
];
constraint_x6_x1=[
0,0,1.7|
0,1,8.3|
0,2,1.8|
1,0,1.4|
1,1,8.1|
1,2,0.12|
2,0,2.1|
2,1,1.2|
2,2,5.7|
];
constraint_x6_x2=[
0,0,0.25|
0,1,2.1|
0,2,1.7|
1,0,0.97|
1,1,7.4|
1,2,2.7|
2,0,0.78|
2,1,7.8|
2,2,9.4|
];
constraint_x6_x4=[
0,0,5.7|
0,1,2.9|
0,2,5.7|
1,0,5.6|
1,1,0.78|
1,2,2.9|
2,0,9.9|
2,1,4|
2,2,5.7|
];
constraint_x7_x1=[
0,0,6.8|
0,1,8.8|
0,2,3.9|
1,0,3.4|
1,1,9.1|
1,2,5.9|
2,0,0.43|
2,1,9.4|
2,2,1|
];
constraint_x7_x3=[
0,0,8|
0,1,2.8|
0,2,1.2|
1,0,4.5|
1,1,4.6|
1,2,5.2|
2,0,5.4|
2,1,9.3|
2,2,2.5|
];
constraint_x7_x4=[
0,0,3.5|
0,1,9.6|
0,2,8.8|
1,0,6.4|
1,1,7.3|
1,2,5.7|
2,0,5.6|
2,1,8.7|
2,2,0.27|
];
constraint_x8_x1=[
0,0,9.2|
0,1,1.4|
0,2,5.7|
1,0,9.2|
1,1,2.4|
1,2,9.8|
2,0,3.4|
2,1,0.85|
2,2,9.6|
];
constraint_x8_x2=[
0,0,0.041|
0,1,1|
0,2,8.1|
1,0,5.9|
1,1,6|
1,2,8.5|
2,0,2.1|
2,1,4.4|
2,2,3.4|
];
constraint_x8_x6=[
0,0,5.8|
0,1,2.7|
0,2,9.7|
1,0,3.1|
1,1,5|
1,2,5.8|
2,0,6.1|
2,1,5.5|
2,2,1.9|
];
constraint_x9_x2=[
0,0,1.1|
0,1,8.9|
0,2,3|
1,0,4.2|
1,1,9.6|
1,2,2.3|
2,0,2.4|
2,1,1.9|
2,2,9.6|
];
constraint_x9_x3=[
0,0,3.2|
0,1,4.1|
0,2,4.4|
1,0,0.15|
1,1,1.1|
1,2,0.63|
2,0,9.7|
2,1,3.2|
2,2,4.2|
];
constraint_x9_x4=[
0,0,7.9|
0,1,9.8|
0,2,1|
1,0,4.1|
1,1,9.9|
1,2,3.7|
2,0,6|
2,1,8.7|
2,2,3.2|
];
constraint_x9_x8=[
0,0,0.86|
0,1,7.3|
0,2,6.6|
1,0,2.1|
1,1,1.2|
1,2,9.3|
2,0,3|
2,1,9.3|
2,2,6|
];
constraint_x10_x2=[
0,0,2.5|
0,1,3.6|
0,2,7.4|
1,0,2.4|
1,1,7.4|
1,2,0.2|
2,0,0.99|
2,1,4.6|
2,2,1.6|
];
constraint_x10_x4=[
0,0,8.5|
0,1,6.9|
0,2,1.7|
1,0,1.6|
1,1,4.1|
1,2,9.3|
2,0,3.1|
2,1,7.7|
2,2,3.2|
];
constraint_x10_x5=[
0,0,3.9|
0,1,0.083|
0,2,7.3|
1,0,1.4|
1,1,9.6|
1,2,2.6|
2,0,0.7|
2,1,5.5|
2,2,7.5|
];
constraint_x10_x6=[
0,0,7.6|
0,1,6.1|
0,2,4.6|
1,0,1.4|
1,1,9.9|
1,2,9|
2,0,4.8|
2,1,1.9|
2,2,7.2|
];
constraint_x10_x7=[
0,0,4.9|
0,1,2.4|
0,2,1.6|
1,0,7.7|
1,1,5.8|
1,2,2.1|
2,0,5.8|
2,1,9.1|
2,2,4.7|
];
constraint_x10_x9=[
0,0,9.4|
0,1,6.1|
0,2,5.5|
1,0,4.3|
1,1,2.1|
1,2,3.3|
2,0,6.4|
2,1,2.3|
2,2,3.9|
];
constraint_x11_x1=[
0,0,3.1|
0,1,6.6|
0,2,2.2|
1,0,0.038|
1,1,0.12|
1,2,5.2|
2,0,5.9|
2,1,1.3|
2,2,7.6|
];
constraint_x11_x2=[
0,0,5.2|
0,1,1.5|
0,2,2.5|
1,0,5.5|
1,1,6.8|
1,2,1.1|
2,0,8.4|
2,1,0.96|
2,2,4.8|
];
constraint_x11_x4=[
0,0,5.1|
0,1,8.6|
0,2,4.3|
1,0,8.2|
1,1,7|
1,2,1.5|
2,0,8.6|
2,1,0.19|
2,2,6.2|
];
constraint_x11_x5=[
0,0,7|
0,1,8.2|
0,2,2.9|
1,0,9.5|
1,1,3|
1,2,4.7|
2,0,3.5|
2,1,1|
2,2,5.9|
];
constraint_x11_x7=[
0,0,4.5|
0,1,8.7|
0,2,8.7|
1,0,4.4|
1,1,6.5|
1,2,6.1|
2,0,4.7|
2,1,3.5|
2,2,0.41|
];
constraint_x11_x8=[
0,0,6.7|
0,1,3.7|
0,2,4.3|
1,0,2.4|
1,1,2.6|
1,2,7|
2,0,4.8|
2,1,7|
2,2,4.8|
];
constraint_x12_x2=[
0,0,6.7|
0,1,3|
0,2,8.9|
1,0,4.9|
1,1,7.1|
1,2,6.7|
2,0,1.7|
2,1,7.2|
2,2,7.1|
];
constraint_x12_x3=[
0,0,2.1|
0,1,6.3|
0,2,1.6|
1,0,2.2|
1,1,2.9|
1,2,8.3|
2,0,5.5|
2,1,5.3|
2,2,1.5|
];
constraint_x12_x4=[
0,0,7.1|
0,1,1.4|
0,2,3.1|
1,0,6.9|
1,1,7.5|
1,2,0.6|
2,0,1.1|
2,1,5.2|
2,2,2.9|
];
constraint_x12_x5=[
0,0,4.5|
0,1,2.7|
0,2,1.4|
1,0,2.1|
1,1,9.7|
1,2,7.5|
2,0,0.37|
2,1,9.2|
2,2,0.91|
];
constraint_x12_x9=[
0,0,7.8|
0,1,2.1|
0,2,3.7|
1,0,3.7|
1,1,3.5|
1,2,2.3|
2,0,6.8|
2,1,3.8|
2,2,6.9|
];
constraint_x12_x10=[
0,0,4.8|
0,1,9.1|
0,2,1.4|
1,0,8.3|
1,1,5|
1,2,9.1|
2,0,7.9|
2,1,5.2|
2,2,8.7|
];
constraint_x13_x2=[
0,0,0.45|
0,1,3.3|
0,2,6|
1,0,9.5|
1,1,9.9|
1,2,4.4|
2,0,0.0035|
2,1,6.1|
2,2,9.4|
];
constraint_x13_x5=[
0,0,7.1|
0,1,8.5|
0,2,1.1|
1,0,8.8|
1,1,6.6|
1,2,5.4|
2,0,9|
2,1,0.62|
2,2,5.6|
];
constraint_x13_x11=[
0,0,7|
0,1,1.6|
0,2,4.3|
1,0,8.4|
1,1,8|
1,2,7.5|
2,0,4.7|
2,1,7.8|
2,2,9.6|
];
constraint_x14_x2=[
0,0,9.9|
0,1,7.2|
0,2,5.9|
1,0,6.6|
1,1,2.8|
1,2,2.7|
2,0,3.2|
2,1,4.9|
2,2,7.2|
];
constraint_x14_x3=[
0,0,5.4|
0,1,4.7|
0,2,2.2|
1,0,5.7|
1,1,9.1|
1,2,8.8|
2,0,8.1|
2,1,0.96|
2,2,6.8|
];
constraint_x14_x5=[
0,0,9.9|
0,1,0.22|
0,2,7.3|
1,0,7.7|
1,1,2.5|
1,2,2|
2,0,6.5|
2,1,1.7|
2,2,8.8|
];
constraint_x14_x6=[
0,0,9.3|
0,1,2.6|
0,2,6.3|
1,0,0.54|
1,1,1.6|
1,2,8.6|
2,0,6.8|
2,1,4.4|
2,2,6.2|
];
constraint_x14_x8=[
0,0,0.049|
0,1,3.5|
0,2,7.5|
1,0,4.5|
1,1,5.7|
1,2,4.4|
2,0,7.6|
2,1,0.53|
2,2,4.6|
];
constraint_x14_x9=[
0,0,8.6|
0,1,6.8|
0,2,6.8|
1,0,4|
1,1,3.6|
1,2,9.2|
2,0,5.2|
2,1,0.22|
2,2,7.5|
];
constraint_x14_x11=[
0,0,8.1|
0,1,7.6|
0,2,7.5|
1,0,3.9|
1,1,9.5|
1,2,7.5|
2,0,3.2|
2,1,4.3|
2,2,8.8|
];
constraint_x14_x12=[
0,0,9.9|
0,1,4.4|
0,2,1.9|
1,0,4.6|
1,1,6.9|
1,2,7.6|
2,0,0.97|
2,1,7.2|
2,2,3.5|
];
constraint_x14_x13=[
0,0,2.7|
0,1,3.9|
0,2,1.9|
1,0,3.4|
1,1,4|
1,2,4.4|
2,0,9.4|
2,1,4.8|
2,2,7.5|
];
constraint_x15_x6=[
0,0,10|
0,1,9.1|
0,2,0.21|
1,0,9.3|
1,1,3.4|
1,2,0.41|
2,0,4.8|
2,1,7.3|
2,2,9.4|
];
constraint_x15_x8=[
0,0,0.64|
0,1,6.6|
0,2,3.7|
1,0,7.3|
1,1,1.1|
1,2,1.7|
2,0,9.6|
2,1,4.7|
2,2,1.4|
];
constraint_x15_x9=[
0,0,0.19|
0,1,5.3|
0,2,9.1|
1,0,0.13|
1,1,2.5|
1,2,8.7|
2,0,8.5|
2,1,0.44|
2,2,0.35|
];
constraint_x15_x11=[
0,0,1.2|
0,1,1.5|
0,2,0.25|
1,0,6.7|
1,1,9.6|
1,2,3.2|
2,0,7.6|
2,1,5.8|
2,2,2.8|
];
constraint_x1_y1=[
0,0,4.7|
0,1,2.2|
0,2,4.7|
1,0,4.7|
1,1,2.7|
1,2,7|
2,0,0.22|
2,1,0.15|
2,2,2.9|
];
constraint_x2_y2=[
0,0,9|
0,1,5.8|
0,2,0.37|
1,0,8.3|
1,1,9.3|
1,2,0.53|
2,0,7.9|
2,1,6.6|
2,2,0.76|
];
constraint_x3_y3=[
0,0,8.1|
0,1,0.28|
0,2,0.52|
1,0,5.2|
1,1,5.7|
1,2,3.2|
2,0,7.9|
2,1,9.2|
2,2,10|
];
initial_distribution_y1=[0.41,0.15,0.45];
initial_distribution_y2=[0.12,0.38,0.5];
initial_distribution_y3=[0.051,0.73,0.22];
transition_y1=[
0.28,0.35,0.36|
0.28,0.44,0.28|
0.32,0.48,0.2|
];
transition_y2=[
0.4,0.36,0.24|
0.4,0.58,0.022|
0.74,0.056,0.21|
];
transition_y3=[
0.55,0.3,0.14|
0.46,0.12,0.43|
0.23,0.23,0.54|
];
